
Gurobi 9.1.2 (linux64, gurobi_cl) logging started Fri Jul 30 13:55:11 2021

Using license file /opt/gurobi/gurobi.lic
Set parameter TimeLimit to value 600
Set parameter Heuristics to value 0.1
Set parameter Cuts to value 2
Set parameter LogFile to value 912-Cuts2-Heuristics0.1-glass4-1.log
Set parameter Seed to value 1

Gurobi Optimizer version 9.1.2 build v9.1.2rc0 (linux64)
Copyright (c) 2021, Gurobi Optimization, LLC

Read MPS format model from file /nfs/models/mip/glass4.mps.bz2
Reading time = 0.00 seconds
glass4: 396 rows, 322 columns, 1815 nonzeros
Thread count: 4 physical cores, 8 logical processors, using up to 8 threads
Optimize a model with 396 rows, 322 columns and 1815 nonzeros
Model fingerprint: 0x0a9d9037
Variable types: 20 continuous, 302 integer (0 binary)
Coefficient statistics:
  Matrix range     [1e+00, 8e+06]
  Objective range  [1e+00, 1e+06]
  Bounds range     [1e+00, 8e+02]
  RHS range        [1e+00, 8e+06]
Presolve removed 6 rows and 6 columns
Presolve time: 0.00s
Presolved: 390 rows, 316 columns, 1803 nonzeros
Variable types: 19 continuous, 297 integer (297 binary)
Found heuristic solution: objective 3.133356e+09

Root relaxation: objective 8.000024e+08, 72 iterations, 0.00 seconds

    Nodes    |    Current Node    |     Objective Bounds      |     Work
 Expl Unexpl |  Obj  Depth IntInf | Incumbent    BestBd   Gap | It/Node Time

     0     0 8.0000e+08    0   72 3.1334e+09 8.0000e+08  74.5%     -    0s
H    0     0                    2.250018e+09 8.0000e+08  64.4%     -    0s
H    0     0                    2.150017e+09 8.0000e+08  62.8%     -    0s
     0     0 8.0000e+08    0   72 2.1500e+09 8.0000e+08  62.8%     -    0s
     0     0 8.0000e+08    0   72 2.1500e+09 8.0000e+08  62.8%     -    0s
     0     2 8.0000e+08    0   72 2.1500e+09 8.0000e+08  62.8%     -    0s
H  124   189                    1.850016e+09 8.0000e+08  56.8%   5.3    0s
H  406   380                    1.700016e+09 8.0000e+08  52.9%   4.5    0s
H 1697  1120                    1.700015e+09 8.0001e+08  52.9%  17.9    3s
H 3214  1691                    1.700015e+09 8.0001e+08  52.9%  24.3    4s
H 3215  1561                    1.683349e+09 8.0001e+08  52.5%  24.3    4s
H 3549  1795                    1.675016e+09 8.0001e+08  52.2%  25.7    4s
* 3554  1795              70    1.675016e+09 8.0001e+08  52.2%  25.7    4s
  3561  1865 8.0001e+08   25  105 1.6750e+09 8.0001e+08  52.2%  25.7    5s
H 4160  2194                    1.650015e+09 8.0001e+08  51.5%  27.6    6s
H 4161  2174                    1.600015e+09 8.0001e+08  50.0%  27.6    6s
H 5604  3121                    1.600014e+09 8.0001e+08  50.0%  30.8    7s
  7239  4307 1.0000e+09   30   59 1.6000e+09 8.0006e+08  50.0%  32.4   10s
* 7421  4304              61    1.600014e+09 8.0016e+08  50.0%  32.3   10s
* 7423  4303              60    1.600014e+09 8.0016e+08  50.0%  32.3   10s
H 7864  4494                    1.600014e+09 8.0060e+08  50.0%  32.4   10s
H 7865  4484                    1.600014e+09 8.0060e+08  50.0%  32.4   10s
H 7875  4137                    1.566680e+09 8.0060e+08  48.9%  32.5   11s
H 7878  4108                    1.562514e+09 8.0060e+08  48.8%  32.4   11s
H 9261  4240                    1.480014e+09 8.0250e+08  45.8%  34.4   12s
* 9432  4344              50    1.460014e+09 8.0307e+08  45.0%  34.7   13s
 11536  5430 infeasible   44      1.4600e+09 8.0966e+08  44.5%  38.0   15s
 18884  8620 1.1000e+09   28  116 1.4600e+09 8.6667e+08  40.6%  46.4   20s
*22890  9618              52    1.400014e+09 8.8001e+08  37.1%  48.9   22s
H23192  9621                    1.400013e+09 8.8001e+08  37.1%  49.0   23s
H23228  9620                    1.400013e+09 8.8001e+08  37.1%  49.1   23s
H23260  8588                    1.350013e+09 8.8001e+08  34.8%  49.2   23s
*24045  8583              40    1.333346e+09 8.8276e+08  33.8%  50.2   24s
*24536  7547              37    1.266680e+09 9.0000e+08  28.9%  51.0   24s
 24551  7416 infeasible   35      1.2667e+09 9.0000e+08  28.9%  51.1   25s
*24569  7111              37    1.200013e+09 9.0000e+08  25.0%  51.1   25s
 29504  3913 infeasible   37      1.2000e+09 1.0000e+09  16.7%  60.0   30s

Cutting planes:
  Gomory: 122
  Cover: 472
  Implied bound: 149
  Projected implied bound: 7
  MIR: 77
  Flow cover: 755
  Inf proof: 38
  RLT: 76
  Relax-and-lift: 232

Explored 33060 nodes (1908927 simplex iterations) in 31.18 seconds
Thread count was 8 (of 8 available processors)

Solution count 10: 1.20001e+09 1.26668e+09 1.33335e+09 ... 1.56251e+09

Optimal solution found (tolerance 1.00e-04)
Best objective 1.200012600000e+09, best bound 1.200003400000e+09, gap 0.0008%
